p cnf 12 50 
-10 -3 2 0
-6 2 3 0
-11 6 -4 0
-12 5 9 0
-10 12 5 0
9 -5 1 0
-10 -9 -2 0
3 2 -4 0
-9 11 4 0
6 -10 7 0
1 12 -9 0
-4 2 -12 0
-6 -3 -8 0
2 -12 -7 0
2 11 6 0
11 -9 -10 0
-11 -1 -10 0
5 11 -4 0
-7 -10 2 0
9 10 6 0
12 10 4 0
10 12 -4 0
5 -7 6 0
11 10 -1 0
11 -5 -10 0
-5 -9 -7 0
12 6 8 0
-10 8 5 0
-4 11 -6 0
-12 -9 -2 0
-7 -6 12 0
-3 10 6 0
-12 -6 -9 0
-4 10 -12 0
12 -8 -2 0
-7 1 5 0
11 8 5 0
12 11 -2 0
1 10 7 0
4 -10 -11 0
-11 -3 -1 0
4 2 10 0
-8 10 -5 0
11 9 -7 0
-7 5 -8 0
-11 4 2 0
10 3 -7 0
-1 10 12 0
5 -4 -8 0
-7 4 10 0
